solution status: time limit reached
objective value:                                   16
shell_j_$_22                                        1 	(obj:0)
shell_j_$_20                                        1 	(obj:0)
shell_j_$_13                                        1 	(obj:0)
shell_j_$_57                                        1 	(obj:0)
shell_j_$_60                                        1 	(obj:0)
shell_j_$_68                                        1 	(obj:0)
shell_j_$_24                                        1 	(obj:0)
shell_i_$_67                                        1 	(obj:0)
shell_j_$_58                                        1 	(obj:0)
shell_j_$_34                                        1 	(obj:0)
shell_j_$_56                                        1 	(obj:0)
shell_j_$_12                                        1 	(obj:0)
shell_j_$_36                                        1 	(obj:0)
shell_j_$_61                                        1 	(obj:0)
shell_j_$_65                                        1 	(obj:0)
shell_i_$_21                                        1 	(obj:0)
shell_j_$_33                                        1 	(obj:0)
shell_j_$_14                                        1 	(obj:0)
shell_i_$_66                                        1 	(obj:0)
shell_i_$_59                                        1 	(obj:0)
shell_j_$_35                                        1 	(obj:0)
shell_j_$_23                                        1 	(obj:0)
shell_i_$_27                                        1 	(obj:0)
shell_i_$_25                                        1 	(obj:0)
shell_i_$_11                                        1 	(obj:0)
shell_i_$_26                                        1 	(obj:0)
$_56_z                                             23 	(obj:0)
$_60_x                                              3 	(obj:0)
$_60_y                                              4 	(obj:0)
$_12_x                                              4 	(obj:0)
$_12_y                                              4 	(obj:0)
$_12_z                                             18 	(obj:0)
$_60_z                                             21 	(obj:0)
$_22_z                                             24 	(obj:0)
$_36_x                                              1 	(obj:0)
$_36_y                                              4 	(obj:0)
$_36_z                                             25 	(obj:0)
$_22_x                                              2 	(obj:0)
$_68_x                                              4 	(obj:0)
$_61_x                                              1 	(obj:0)
$_61_y                                              4 	(obj:0)
$_61_z                                             21 	(obj:0)
$_68_y                                              4 	(obj:0)
$_68_z                                             25 	(obj:0)
$_65_x                                              4 	(obj:0)
$_65_y                                              4 	(obj:0)
$_65_z                                             24 	(obj:0)
$_13_x                                              3 	(obj:0)
$_13_y                                              4 	(obj:0)
$_21_x                                              4 	(obj:0)
$_21_y                                              3 	(obj:0)
$_21_z                                             25 	(obj:0)
$_24_x                                              4 	(obj:0)
$_24_y                                              4 	(obj:0)
$_33_x                                              4 	(obj:0)
$_33_y                                              4 	(obj:0)
$_33_z                                             23 	(obj:0)
$_24_z                                             21 	(obj:0)
$_13_z                                             20 	(obj:0)
$_14_x                                              3 	(obj:0)
$_14_y                                              4 	(obj:0)
$_14_z                                             24 	(obj:0)
$_22_y                                              4 	(obj:0)
$_67_x                                              4 	(obj:0)
$_66_x                                              4 	(obj:0)
$_66_y                                              3 	(obj:0)
$_66_z                                             22 	(obj:0)
$_67_y                                              2 	(obj:0)
$_67_z                                             24 	(obj:0)
$_59_x                                              4 	(obj:0)
$_59_y                                              3 	(obj:0)
$_59_z                                             23 	(obj:0)
$_20_x                                              4 	(obj:0)
$_57_x                                              3 	(obj:0)
$_35_x                                              2 	(obj:0)
$_35_y                                              4 	(obj:0)
$_35_z                                             23 	(obj:0)
$_58_x                                              3 	(obj:0)
$_58_y                                              4 	(obj:0)
$_23_x                                              1 	(obj:0)
$_23_y                                              4 	(obj:0)
$_23_z                                             22 	(obj:0)
$_58_z                                             25 	(obj:0)
$_57_y                                              4 	(obj:0)
$_27_x                                              4 	(obj:0)
$_27_y                                              3 	(obj:0)
$_27_z                                             24 	(obj:0)
$_57_z                                             22 	(obj:0)
$_34_x                                              1 	(obj:0)
$_25_x                                              4 	(obj:0)
$_25_y                                              4 	(obj:0)
$_25_z                                             20 	(obj:0)
$_34_y                                              4 	(obj:0)
$_34_z                                             23 	(obj:0)
$_11_x                                              4 	(obj:0)
$_11_y                                              2 	(obj:0)
$_11_z                                             23 	(obj:0)
$_20_y                                              4 	(obj:0)
$_20_z                                             22 	(obj:0)
$_26_x                                              4 	(obj:0)
$_26_y                                              3 	(obj:0)
$_26_z                                             21 	(obj:0)
$_56_x                                              3 	(obj:0)
$_56_y                                              4 	(obj:0)
x143                                                1 	(obj:1)
x151                                                2 	(obj:1)
x153                                                1 	(obj:1)
x158                                                3 	(obj:1)
x166                                                1 	(obj:1)
x170                                                3 	(obj:1)
x177                                                1 	(obj:1)
x186                                                1 	(obj:1)
x189                                                1 	(obj:1)
x198                                                1 	(obj:1)
x207                                                1 	(obj:1)
